(set-info :smt-lib-version 2.6)
(set-logic QF_S)
(set-info :source |
Generated by: Hung-En Wang, Tzung-Lin Tsai, Chun-Han Lin, Fang Yu, and Jie-Hong R. Jiang
Generated on: 2019-02-28
Generator: Stranger
Application: Security analysis of string manipulating web applications
Target solver: CVC4, Norn, Z3-str2
Publication:
Hung-En Wang, Tzung-Lin Tsai, Chun-Han Lin, Fang Yu, Jie-Hong R. Jiang:
String Analysis via Automata Manipulation with Logic Circuit Representation. CAV (1) 2016: 241-260.
|)
(set-info :license "https://creativecommons.org/licenses/by/4.0/")
(set-info :category "industrial")
(set-info :status unknown)

(declare-fun sigmaStar_0 () String)
(declare-fun literal_3 () String)
(declare-fun x_5 () String)
(declare-fun sigmaStar_10 () String)
(declare-fun literal_8 () String)
(declare-fun x_11 () String)
(declare-fun literal_2 () String)
(declare-fun x_13 () String)
(declare-fun literal_15 () String)
(declare-fun x_17 () String)
(declare-fun literal_16 () String)
(declare-fun x_18 () String)
(declare-fun literal_7 () String)
(declare-fun x_19 () String)
(declare-fun literal_20 () String)
(declare-fun x_22 () String)
(declare-fun literal_21 () String)
(declare-fun x_23 () String)
(declare-fun x_24 () String)
(assert (= literal_3 "\u{3c}\u{74}\u{64}\u{3e}\u{3c}\u{69}\u{6d}\u{67}\u{20}\u{61}\u{6c}\u{74}\u{3d}\u{5c}\u{22}"))
(assert (= x_5 (str.++ literal_3 sigmaStar_0)))
(assert (= literal_8 "\u{5c}\u{22}\u{20}\u{62}\u{6f}\u{72}\u{64}\u{65}\u{72}\u{3d}\u{5c}\u{22}\u{30}\u{5c}\u{22}\u{20}\u{68}\u{73}\u{70}\u{61}\u{63}\u{65}\u{3d}\u{5c}\u{22}\u{31}\u{30}\u{5c}\u{22}\u{20}\u{73}\u{72}\u{63}\u{3d}\u{5c}\u{22}"))
(assert (= x_11 (str.++ x_5 literal_8)))
(assert (= literal_2 "\u{2f}\u{73}"))
(assert (= x_13 (str.++ x_11 literal_2)))
(assert (= literal_15 "\u{2f}"))
(assert (= x_17 (str.++ x_13 literal_15)))
(assert (= literal_16 "\u{20}\u{6f}\u{6e}\u{63}\u{6c}\u{69}\u{63}\u{6b}\u{3d}\u{5c}\u{22}\u{69}\u{6e}\u{73}\u{65}\u{72}\u{74}\u{28}\u{27}\u{2f}\u{73}\u{2f}\u{2e}\u{67}\u{69}\u{66}\u{27}\u{2c}\u{27}"))
(assert (= x_18 (str.++ literal_16 sigmaStar_0)))
(assert (= literal_7 ""))
(assert (= x_19 (str.++ x_17 literal_7)))
(assert (= literal_20 "\u{27}\u{29}\u{5c}\u{22}\u{20}\u{77}\u{69}\u{64}\u{74}\u{68}\u{3d}\u{5c}\u{22}\u{31}\u{35}\u{5c}\u{22}\u{20}\u{68}\u{65}\u{69}\u{67}\u{68}\u{74}\u{3d}\u{5c}\u{22}\u{31}\u{35}\u{5c}\u{22}\u{20}\u{2f}\u{3e}\u{3c}\u{2f}\u{74}\u{64}\u{3e}"))
(assert (= x_22 (str.++ x_18 literal_20)))
(assert (= literal_21 "\u{2e}\u{67}\u{69}\u{66}\u{5c}\u{22}\u{20}"))
(assert (= x_23 (str.++ x_19 literal_21)))
(assert (= x_24 (str.++ x_23 x_22)))
(assert (str.in_re x_24 (re.++ (re.* re.allchar) (re.++ (str.to_re "\u{5c}\u{3c}\u{53}\u{43}\u{52}\u{49}\u{50}\u{54}") (re.* re.allchar)))))
(check-sat)
(exit)
